c Random generated cnf formula, satisfiable: true
p cnf 10 50
-10 9 -3 0
6 -10 -3 0
-9 -10 5 0
3 -6 4 0
-7 5 -8 0
3 5 9 0
-7 -6 9 0
-1 -8 6 0
7 -6 2 0
-2 -8 -1 0
-8 7 5 0
-4 -8 -3 0
4 -1 6 0
-3 -7 2 0
-2 8 -1 0
-3 2 -4 0
-5 -2 -6 0
-1 -5 -4 0
-7 5 9 0
6 10 8 0
2 9 -4 0
-3 7 10 0
5 3 4 0
9 -10 -5 0
-2 -4 -7 0
4 9 1 0
-10 -6 2 0
-6 -3 -7 0
5 2 -6 0
7 -4 -5 0
-9 -1 3 0
3 -10 -4 0
-10 -6 8 0
4 -8 5 0
-7 -8 9 0
2 1 9 0
-7 -9 -8 0
-10 -9 -6 0
1 -6 2 0
5 4 10 0
-8 2 -7 0
7 3 -4 0
-6 -4 -8 0
4 -8 -3 0
-4 -6 -5 0
-1 -2 -5 0
5 2 -10 0
9 7 -1 0
1 -5 -4 0
5 4 7 0
